20
587 233 220
104 94 50
102 87 36
115 42 33
61 58 32
70 62 48
91 79 78
90 57 53
78 68 25
77 44 39
97 89 56
58 38 26
64 44 33
57 38 25
70 65 28
93 73 61
61 47 46
111 72 26
102 78 63
88 65 62
63 51 38
thpack7_38